17	4
12	12	15	15	
0	0	0	0	0	3	2	3	4	
4	1	0	0	1	3	6	14	17	
6	3	0	9	0	3	5	8	9	
9	4	0	9	0	3	9	11	17	
1	0	3	9	8	3	12	17	17	
25	7	0	9	10	3	7	9	10	
75	3	8	0	10	3	8	12	17	
250	4	1	7	6	2	17	17	
225	6	3	3	3	3	15	17	17	
175	2	0	9	9	2	12	17	
75	4	3	9	3	3	13	15	17	
100	4	7	10	2	2	16	17	
6	5	3	3	10	3	16	17	17	
3	5	0	0	7	3	15	17	17	
7	2	2	0	4	2	17	17	
4	0	7	2	3	1	17	
0	0	0	0	0	0	
